db/inputs/227663129118252189830816311662182116757.smt2
(set-logic QF_FP)
(declare-const x0 (_ FloatingPoint 11 53))
(declare-const x1 (_ FloatingPoint 11 53))
(declare-const x2 (_ FloatingPoint 11 53))
(declare-const x3 (_ FloatingPoint 11 53))
(declare-const x4 (_ FloatingPoint 11 53))
(declare-const x5 (_ FloatingPoint 11 53))
(declare-const x6 (_ FloatingPoint 11 53))
(declare-const x7 (_ FloatingPoint 11 53))
(declare-const x8 (_ FloatingPoint 11 53))
(declare-const x9 (_ FloatingPoint 11 53))
(declare-const x10 (_ FloatingPoint 11 53))
(assert (fp.lt (fp.add RNE x9 x10) (fp.div RNE x8 x10)))
(assert (fp.gt (fp.add RNE x2 x9) (fp.neg x4)))
(assert (fp.geq (fp.mul RNE x4 x2) (fp.add RNE x3 x2)))
(assert (fp.geq (fp.mul RNE x1 x8) (fp.div RNE x0 x9)))
(assert (fp.gt (fp.mul RNE x0 x0) (fp.div RNE x2 x5)))
(assert (fp.geq (fp.neg x7) (fp.div RNE x5 x2)))
(assert (fp.gt (fp.neg x0) (fp.add RNE x5 x3)))
(assert (fp.eq (fp.neg x3) (fp.sub RNE x7 x7)))
(assert (fp.lt (fp.sub RNE x5 x6) (fp.div RNE x3 x3)))
(assert (fp.gt (fp.add RNE x8 x7) (fp.div RNE x7 x1)))
(assert (fp.lt (fp.neg x6) (fp.div RNE x9 x8)))
(assert (fp.leq (fp.add RNE x5 x9) (fp.sub RNE x4 x7)))
(assert (fp.lt (fp.mul RNE x2 x0) (fp.div RNE x5 x6)))
(assert (fp.lt (fp.div RNE x0 x5) (fp.neg x8)))
(assert (fp.geq (fp.neg x6) (fp.div RNE x8 x4)))
(assert (fp.eq (fp.neg x5) (fp.mul RNE x6 x4)))
(assert (fp.gt (fp.add RNE x10 x3) (fp.neg x0)))
(check-sat)
