db/data/227663129118252189830816311662182116757.z3.out
unsat
-------------------
1159.953588830
